Numerical_Analysis/Instances_238/Original_request/carrier_0_238.leadtime.lower_bound.sol
00000004 Qj00g04 1
00000006 Qj01g00 1
00000015 Qj02g03 1
00000020 Qj03g02 1
00000029 Qj04g05 1
00000031 Qj05g01 1
